phonon calc.
&INPUTPH
outdir = '../tmp/'
prefix = 'gr'
tr2_ph = 1d-14
ldisp  = .true.			#to get phonon dispersion set ldisp to true
nq1    = 6			#nq1,nq2,nq3 are q points for phonon dispersion
nq2    = 6
nq3    = 1			#for 2D nq3=1
fildyn = 'gr.dyn'
/




#phonon calculation is time consuming so we use smaller value of q than k
